100 151892
16 40 13 74 5 35 95 15 65 61 6 9 49 54 93 14 64 98 69 39 3 4 23 42 12 2 25 29 57 100 58 76 94 83 55 92 43 70 84 21 37 31 60 56 82 97 96 78 88 22 30 26 47 90 89 27 68 62 79 33 1 85 87 51 36 99 11 91 19 46 24 48 20 10 8 72 18 34 45 53 44 81 52 28 50 7 32 71 38 63 66 77 59 17 75 73 80 67 86 41 
